0 63 
1 61 
2 63 
3 66 
4 66 
5 69 
6 67 
7 64 
8 66 
9 64 
10 66 
11 65 
12 62 
13 58 
14 59 
15 55 
16 52 
17 51 
18 49 
19 50 
20 51 
21 53 
22 49 
23 48 
24 46 
25 44 
26 44 
27 42 
28 43 
29 45 
30 42 
31 41 
32 39 
33 37 
34 42 
35 39 
36 38 
37 36 
38 35 
39 34 
40 35 
41 35 
42 32 
43 32 
44 30 
45 29 
46 26 
47 27 
48 24 
49 25 
50 27 
51 24 
52 26 
53 24 
54 23 
55 22 
56 18 
57 20 
58 18 
59 17 
60 17 
61 15 
62 13 
63 11 
64 12 
65 10 
66 8 
67 6 
68 4 
69 3 
70 1 
71 1 
72 0 
73 0 

